# Objective value = 119
Q2_0_0 0
Q3_0_0 0
Q2_0_1 0
Q3_0_1 0
Q2_0_2 0
Q3_0_2 0
Q2_0_3 0
Q3_0_3 0
Q2_0_4 0
Q3_0_4 0
Q2_0_5 0
Q3_0_5 0
Q2_0_6 0
Q3_0_6 0
Q2_0_7 0
Q3_0_7 0
Q2_1_0 0
Q3_1_0 0
Q2_1_1 0
Q3_1_1 0
Q2_1_2 0
Q3_1_2 0
Q2_1_3 0
Q3_1_3 0
Q2_1_4 0
Q3_1_4 0
Q2_1_5 0
Q3_1_5 0
Q2_1_6 0
Q3_1_6 0
Q2_1_7 1
Q3_1_7 0
Q2_2_0 0
Q3_2_0 0
Q2_2_1 0
Q3_2_1 0
Q2_2_2 0
Q3_2_2 1
Q2_2_3 0
Q3_2_3 1
Q2_2_4 0
Q3_2_4 1
Q2_2_5 0
Q3_2_5 1
Q2_2_6 0
Q3_2_6 0
Q2_2_7 0
Q3_2_7 0
Q2_3_0 0
Q3_3_0 1
Q2_3_1 0
Q3_3_1 1
Q2_3_2 0
Q3_3_2 0
Q2_3_3 0
Q3_3_3 1
Q2_3_4 0
Q3_3_4 1
Q2_3_5 0
Q3_3_5 1
Q2_3_6 0
Q3_3_6 1
Q2_3_7 0
Q3_3_7 1
Q2_4_0 0
Q3_4_0 1
Q2_4_1 1
Q3_4_1 0
Q2_4_2 1
Q3_4_2 0
Q2_4_3 0
Q3_4_3 1
Q2_4_4 0
Q3_4_4 1
Q2_4_5 0
Q3_4_5 1
Q2_4_6 0
Q3_4_6 1
Q2_4_7 0
Q3_4_7 1
Q2_5_0 1
Q3_5_0 0
Q2_5_1 0
Q3_5_1 0
Q2_5_2 0
Q3_5_2 1
Q2_5_3 0
Q3_5_3 1
Q2_5_4 1
Q3_5_4 0
Q2_5_5 0
Q3_5_5 1
Q2_5_6 0
Q3_5_6 1
Q2_5_7 1
Q3_5_7 0
Q2_6_0 1
Q3_6_0 0
Q2_6_1 0
Q3_6_1 1
Q2_6_2 0
Q3_6_2 0
Q2_6_3 0
Q3_6_3 1
Q2_6_4 0
Q3_6_4 1
Q2_6_5 1
Q3_6_5 0
Q2_6_6 1
Q3_6_6 0
Q2_6_7 1
Q3_6_7 0
Q2_7_0 1
Q3_7_0 0
Q2_7_1 0
Q3_7_1 1
Q2_7_2 1
Q3_7_2 0
Q2_7_3 0
Q3_7_3 1
Q2_7_4 0
Q3_7_4 0
Q2_7_5 0
Q3_7_5 1
Q2_7_6 1
Q3_7_6 0
Q2_7_7 0
Q3_7_7 1
Q2_8_0 1
Q3_8_0 0
Q2_8_1 0
Q3_8_1 0
Q2_8_2 0
Q3_8_2 0
Q2_8_3 0
Q3_8_3 1
Q2_8_4 0
Q3_8_4 0
Q2_8_5 1
Q3_8_5 0
Q2_8_6 1
Q3_8_6 0
Q2_8_7 0
Q3_8_7 0
L0 0
L1 0
L2 0
L3 0
L4 0
L5 0
L6 0
L7 0
L8 0
L9 0
L10 0
L11 0
L12 0
L13 0
L14 0
L15 1
L16 0
L17 0
L18 0
L19 0
L20 0
L21 0
L22 0
L23 0
L24 0
L25 0
L26 0
L27 0
L28 0
L29 0
L30 0
L31 0
X0_0 0
X0_1 0
X0_2 0
X0_3 0
X0_4 0
X0_5 0
X0_6 0
X0_7 0
X0_8 0
X0_9 0
X0_10 0
X0_11 0
X0_12 0
X0_13 0
X0_14 0
X0_15 0
X0_16 0
X0_17 0
X0_18 0
X0_19 0
X0_20 0
X0_21 0
X0_22 0
X0_23 0
X0_24 0
X0_25 0
X0_26 0
X0_27 0
X0_28 0
X0_29 0
X0_30 0
X0_31 0
Y0_0 0
Y0_1 0
Y0_2 0
Y0_3 0
Y0_4 0
Y0_5 0
Y0_6 0
Y0_7 0
Y0_24 0
Y0_25 0
Y0_26 0
Y0_27 0
Y0_28 0
Y0_29 0
Y0_30 0
Y0_31 0
Y0_16 0
Y0_17 0
Y0_18 0
Y0_19 0
Y0_20 0
Y0_21 0
Y0_22 0
Y0_23 0
Y0_8 0
Y0_9 0
Y0_10 0
Y0_11 0
Y0_12 0
Y0_13 0
Y0_14 0
Y0_15 0
X1_0 0
Y1_0 0
X1_1 0
Y1_1 0
X1_2 0
Y1_2 0
X1_3 0
Y1_3 0
X1_4 0
Y1_4 0
X1_5 0
Y1_5 0
X1_6 0
Y1_6 0
X1_7 0
Y1_7 0
X1_8 0
Y1_24 0
X1_9 0
Y1_25 0
X1_10 0
Y1_26 0
X1_11 0
Y1_27 0
X1_12 0
Y1_28 0
X1_13 0
Y1_29 0
X1_14 0
Y1_30 0
X1_15 1
Y1_31 1
X1_16 0
Y1_16 0
X1_17 0
Y1_17 0
X1_18 0
Y1_18 0
X1_19 0
Y1_19 0
X1_20 0
Y1_20 0
X1_21 0
Y1_21 0
X1_22 0
Y1_22 0
X1_23 0
Y1_23 0
X1_24 0
Y1_8 0
X1_25 0
Y1_9 0
X1_26 0
Y1_10 0
X1_27 0
Y1_11 0
X1_28 0
Y1_12 0
X1_29 0
Y1_13 0
X1_30 0
Y1_14 0
X1_31 0
Y1_15 0
X2_0 0
Y2_0 0
X2_1 0
Y2_1 0
X2_2 0
Y2_2 0
X2_3 0
Y2_3 0
X2_4 0
Y2_4 0
X2_5 0
Y2_5 0
X2_6 0
Y2_6 0
X2_7 0
Y2_7 0
X2_8 0
Y2_24 0
X2_9 0
Y2_25 0
X2_10 0
Y2_26 0
X2_11 0
Y2_27 0
X2_12 0
Y2_28 0
X2_13 0
Y2_29 0
X2_14 0
Y2_30 0
X2_15 0
Y2_31 0
X2_16 0
Y2_16 0
X2_17 1
Y2_17 1
X2_18 1
Y2_18 1
X2_19 1
Y2_19 1
X2_20 0
Y2_20 0
X2_21 1
Y2_21 1
X2_22 1
Y2_22 1
X2_23 1
Y2_23 1
X2_24 1
Y2_8 1
X2_25 1
Y2_9 1
X2_26 1
Y2_10 1
X2_27 0
Y2_11 0
X2_28 1
Y2_12 1
X2_29 0
Y2_13 0
X2_30 0
Y2_14 0
X2_31 1
Y2_15 1
X3_0 0
Y3_0 0
X3_1 1
Y3_1 1
X3_2 1
Y3_2 1
X3_3 1
Y3_3 1
X3_4 1
Y3_4 1
X3_5 1
Y3_5 1
X3_6 0
Y3_6 0
X3_7 0
Y3_7 0
X3_8 0
Y3_24 0
X3_9 0
Y3_25 0
X3_10 1
Y3_26 1
X3_11 0
Y3_27 0
X3_12 0
Y3_28 0
X3_13 1
Y3_29 1
X3_14 0
Y3_30 0
X3_15 0
Y3_31 0
X3_16 0
Y3_16 0
X3_17 1
Y3_17 1
X3_18 1
Y3_18 1
X3_19 1
Y3_19 1
X3_20 1
Y3_20 1
X3_21 1
Y3_21 1
X3_22 1
Y3_22 1
X3_23 0
Y3_23 0
X3_24 0
Y3_8 0
X3_25 0
Y3_9 0
X3_26 0
Y3_10 0
X3_27 0
Y3_11 0
X3_28 1
Y3_12 1
X3_29 0
Y3_13 0
X3_30 0
Y3_14 0
X3_31 1
Y3_15 1
X4_0 1
Y4_0 1
X4_1 0
Y4_1 0
X4_2 1
Y4_2 1
X4_3 1
Y4_3 1
X4_4 0
Y4_4 0
X4_5 1
Y4_5 1
X4_6 0
Y4_6 0
X4_7 0
Y4_7 0
X4_8 0
Y4_24 0
X4_9 1
Y4_25 1
X4_10 1
Y4_26 1
X4_11 1
Y4_27 1
X4_12 0
Y4_28 0
X4_13 1
Y4_29 1
X4_14 1
Y4_30 1
X4_15 1
Y4_31 1
X4_16 1
Y4_16 1
X4_17 1
Y4_17 1
X4_18 0
Y4_18 0
X4_19 0
Y4_19 0
X4_20 0
Y4_20 0
X4_21 1
Y4_21 1
X4_22 1
Y4_22 1
X4_23 1
Y4_23 1
X4_24 1
Y4_8 1
X4_25 0
Y4_9 0
X4_26 1
Y4_10 1
X4_27 0
Y4_11 0
X4_28 1
Y4_12 1
X4_29 0
Y4_13 0
X4_30 1
Y4_14 1
X4_31 1
Y4_15 1
X5_0 1
Y5_0 1
X5_1 1
Y5_1 1
X5_2 0
Y5_2 0
X5_3 0
Y5_3 0
X5_4 0
Y5_4 0
X5_5 0
Y5_5 0
X5_6 0
Y5_6 0
X5_7 0
Y5_7 0
X5_8 0
Y5_24 0
X5_9 0
Y5_25 0
X5_10 1
Y5_26 1
X5_11 1
Y5_27 1
X5_12 0
Y5_28 0
X5_13 1
Y5_29 1
X5_14 1
Y5_30 1
X5_15 0
Y5_31 0
X5_16 0
Y5_16 0
X5_17 1
Y5_17 1
X5_18 0
Y5_18 0
X5_19 0
Y5_19 0
X5_20 0
Y5_20 0
X5_21 0
Y5_21 0
X5_22 1
Y5_22 1
X5_23 0
Y5_23 0
X5_24 1
Y5_8 1
X5_25 1
Y5_9 1
X5_26 0
Y5_10 0
X5_27 0
Y5_11 0
X5_28 0
Y5_12 0
X5_29 0
Y5_13 0
X5_30 0
Y5_14 0
X5_31 1
Y5_15 1
X6_0 0
Y6_0 0
X6_1 1
Y6_1 1
X6_2 1
Y6_2 1
X6_3 1
Y6_3 1
X6_4 0
Y6_4 0
X6_5 0
Y6_5 0
X6_6 1
Y6_6 1
X6_7 0
Y6_7 0
X6_8 1
Y6_24 1
X6_9 1
Y6_25 1
X6_10 1
Y6_26 1
X6_11 0
Y6_27 0
X6_12 0
Y6_28 0
X6_13 1
Y6_29 1
X6_14 0
Y6_30 0
X6_15 0
Y6_31 0
X6_16 1
Y6_16 1
X6_17 1
Y6_17 1
X6_18 0
Y6_18 0
X6_19 0
Y6_19 0
X6_20 1
Y6_20 1
X6_21 1
Y6_21 1
X6_22 1
Y6_22 1
X6_23 0
Y6_23 0
X6_24 0
Y6_8 0
X6_25 0
Y6_9 0
X6_26 0
Y6_10 0
X6_27 0
Y6_11 0
X6_28 1
Y6_12 1
X6_29 1
Y6_13 1
X6_30 1
Y6_14 1
X6_31 1
Y6_15 1
X7_0 0
Y7_0 0
X7_1 0
Y7_1 0
X7_2 0
Y7_2 0
X7_3 1
Y7_3 1
X7_4 0
Y7_4 0
X7_5 1
Y7_5 1
X7_6 1
Y7_6 1
X7_7 1
Y7_7 1
X7_8 0
Y7_24 0
X7_9 1
Y7_25 1
X7_10 1
Y7_26 1
X7_11 1
Y7_27 1
X7_12 0
Y7_28 0
X7_13 0
Y7_29 0
X7_14 1
Y7_30 1
X7_15 1
Y7_31 1
X7_16 0
Y7_16 0
X7_17 0
Y7_17 0
X7_18 0
Y7_18 0
X7_19 0
Y7_19 0
X7_20 0
Y7_20 0
X7_21 0
Y7_21 0
X7_22 1
Y7_22 1
X7_23 1
Y7_23 1
X7_24 0
Y7_8 0
X7_25 1
Y7_9 1
X7_26 1
Y7_10 1
X7_27 0
Y7_11 0
X7_28 1
Y7_12 1
X7_29 1
Y7_13 1
X7_30 1
Y7_14 1
X7_31 0
Y7_15 0
X8_0 1
Y8_0 1
X8_1 1
Y8_1 1
X8_2 1
Y8_2 1
X8_3 1
Y8_3 1
X8_4 0
Y8_4 0
X8_5 0
Y8_5 0
X8_6 0
Y8_6 0
X8_7 0
Y8_7 0
X8_8 0
Y8_24 0
X8_9 1
Y8_25 1
X8_10 1
Y8_26 1
X8_11 0
Y8_27 0
X8_12 0
Y8_28 0
X8_13 0
Y8_29 0
X8_14 0
Y8_30 0
X8_15 0
Y8_31 0
X8_16 0
Y8_16 0
X8_17 0
Y8_17 0
X8_18 0
Y8_18 0
X8_19 0
Y8_19 0
X8_20 0
Y8_20 0
X8_21 1
Y8_21 1
X8_22 0
Y8_22 0
X8_23 0
Y8_23 0
X8_24 0
Y8_8 0
X8_25 0
Y8_9 0
X8_26 0
Y8_10 0
X8_27 0
Y8_11 0
X8_28 0
Y8_12 0
X8_29 0
Y8_13 0
X8_30 1
Y8_14 1
X8_31 1
Y8_15 1
W0_0 0
W0_1 0
W0_2 0
W0_3 0
W0_4 0
W0_5 0
W0_6 0
W0_7 0
W0_8 0
W0_9 0
W0_10 0
W0_11 0
W0_12 0
W0_13 0
W0_14 0
W0_15 0
W0_16 0
W0_17 0
W0_18 0
W0_19 0
W0_20 0
W0_21 0
W0_22 0
W0_23 0
W0_24 0
W0_25 0
W0_26 0
W0_27 0
W0_28 0
W0_29 0
W0_30 0
W0_31 0
W1_0 0
W1_1 0
W1_2 0
W1_3 0
W1_4 0
W1_5 0
W1_6 0
W1_7 0
W1_8 0
W1_9 0
W1_10 0
W1_11 0
W1_12 0
W1_13 0
W1_14 0
W1_15 0
W1_16 0
W1_17 0
W1_18 0
W1_19 0
W1_20 0
W1_21 0
W1_22 0
W1_23 0
W1_24 0
W1_25 0
W1_26 0
W1_27 0
W1_28 1
W1_29 1
W1_30 1
W1_31 0
W2_0 0
W2_1 0
W2_2 0
W2_3 0
W2_4 0
W2_5 0
W2_6 0
W2_7 0
W2_8 1
W2_9 1
W2_10 1
W2_11 1
W2_12 1
W2_13 0
W2_14 0
W2_15 1
W2_16 1
W2_17 1
W2_18 1
W2_19 0
W2_20 1
W2_21 1
W2_22 1
W2_23 0
W2_24 0
W2_25 0
W2_26 0
W2_27 0
W2_28 0
W2_29 0
W2_30 0
W2_31 0
W3_0 1
W3_1 1
W3_2 1
W3_3 0
W3_4 1
W3_5 0
W3_6 0
W3_7 0
W3_8 0
W3_9 0
W3_10 0
W3_11 0
W3_12 1
W3_13 0
W3_14 0
W3_15 1
W3_16 1
W3_17 1
W3_18 1
W3_19 0
W3_20 1
W3_21 1
W3_22 1
W3_23 1
W3_24 1
W3_25 1
W3_26 0
W3_27 0
W3_28 0
W3_29 1
W3_30 1
W3_31 0
W4_0 0
W4_1 0
W4_2 1
W4_3 0
W4_4 1
W4_5 1
W4_6 1
W4_7 1
W4_8 0
W4_9 1
W4_10 0
W4_11 0
W4_12 1
W4_13 0
W4_14 1
W4_15 1
W4_16 1
W4_17 0
W4_18 0
W4_19 1
W4_20 1
W4_21 1
W4_22 1
W4_23 0
W4_24 1
W4_25 1
W4_26 1
W4_27 0
W4_28 1
W4_29 1
W4_30 1
W4_31 0
W5_0 0
W5_1 0
W5_2 1
W5_3 0
W5_4 0
W5_5 0
W5_6 0
W5_7 0
W5_8 1
W5_9 0
W5_10 0
W5_11 0
W5_12 1
W5_13 0
W5_14 1
W5_15 0
W5_16 0
W5_17 1
W5_18 0
W5_19 1
W5_20 1
W5_21 1
W5_22 0
W5_23 0
W5_24 0
W5_25 0
W5_26 1
W5_27 1
W5_28 0
W5_29 1
W5_30 0
W5_31 0
W6_0 0
W6_1 1
W6_2 1
W6_3 1
W6_4 0
W6_5 1
W6_6 0
W6_7 1
W6_8 0
W6_9 0
W6_10 0
W6_11 0
W6_12 1
W6_13 1
W6_14 1
W6_15 1
W6_16 1
W6_17 1
W6_18 1
W6_19 1
W6_20 0
W6_21 0
W6_22 1
W6_23 0
W6_24 0
W6_25 0
W6_26 1
W6_27 0
W6_28 1
W6_29 1
W6_30 1
W6_31 1
W7_0 1
W7_1 1
W7_2 1
W7_3 0
W7_4 0
W7_5 1
W7_6 1
W7_7 0
W7_8 0
W7_9 1
W7_10 0
W7_11 0
W7_12 1
W7_13 1
W7_14 1
W7_15 1
W7_16 0
W7_17 0
W7_18 0
W7_19 0
W7_20 0
W7_21 1
W7_22 0
W7_23 0
W7_24 0
W7_25 1
W7_26 1
W7_27 1
W7_28 0
W7_29 1
W7_30 1
W7_31 0
W8_0 1
W8_1 1
W8_2 0
W8_3 1
W8_4 0
W8_5 0
W8_6 0
W8_7 0
W8_8 0
W8_9 0
W8_10 0
W8_11 0
W8_12 0
W8_13 1
W8_14 0
W8_15 0
W8_16 0
W8_17 0
W8_18 0
W8_19 0
W8_20 1
W8_21 1
W8_22 1
W8_23 1
W8_24 0
W8_25 1
W8_26 0
W8_27 0
W8_28 0
W8_29 0
W8_30 0
W8_31 0
Q0_0 0
Q0_1 0
Q0_2 0
Q0_3 0
Q0_4 0
Q0_5 0
Q0_6 0
Q0_7 0
Q1_0 0
Q1_1 0
Q1_2 0
Q1_3 0
Q1_4 0
Q1_5 0
Q1_6 0
Q1_7 1
Q2_0 0
Q2_1 0
Q2_2 1
Q2_3 1
Q2_4 1
Q2_5 1
Q2_6 0
Q2_7 0
Q3_0 1
Q3_1 1
Q3_2 0
Q3_3 1
Q3_4 1
Q3_5 1
Q3_6 1
Q3_7 1
Q4_0 1
Q4_1 1
Q4_2 1
Q4_3 1
Q4_4 1
Q4_5 1
Q4_6 1
Q4_7 1
Q5_0 1
Q5_1 0
Q5_2 1
Q5_3 1
Q5_4 1
Q5_5 1
Q5_6 1
Q5_7 1
Q6_0 1
Q6_1 1
Q6_2 0
Q6_3 1
Q6_4 1
Q6_5 1
Q6_6 1
Q6_7 1
Q7_0 1
Q7_1 1
Q7_2 1
Q7_3 1
Q7_4 0
Q7_5 1
Q7_6 1
Q7_7 1
Q8_0 1
Q8_1 0
Q8_2 0
Q8_3 1
Q8_4 0
Q8_5 1
Q8_6 1
Q8_7 0
T0_0 0
U0_0 0
V0_0 0
Z0_0 0
T0_1 0
U0_1 0
V0_1 0
Z0_1 0
T0_2 0
U0_2 0
V0_2 0
Z0_2 0
T0_3 0
U0_3 0
V0_3 0
Z0_3 0
T0_4 0
U0_4 0
V0_4 0
Z0_4 0
T0_5 0
U0_5 0
V0_5 0
Z0_5 0
T0_6 0
U0_6 0
V0_6 0
Z0_6 0
T0_7 0
U0_7 0
V0_7 0
Z0_7 0
T0_8 0
U0_8 0
V0_8 0
Z0_8 0
T0_9 0
U0_9 0
V0_9 0
Z0_9 0
T0_10 0
U0_10 0
V0_10 0
Z0_10 0
T0_11 0
U0_11 0
V0_11 0
Z0_11 0
T0_12 0
U0_12 0
V0_12 0
Z0_12 0
T0_13 0
U0_13 0
V0_13 0
Z0_13 0
T0_14 0
U0_14 0
V0_14 0
Z0_14 0
T0_15 0
U0_15 0
V0_15 0
Z0_15 0
T0_16 0
U0_16 0
V0_16 0
Z0_16 0
T0_17 0
U0_17 0
V0_17 0
Z0_17 0
T0_18 0
U0_18 0
V0_18 0
Z0_18 0
T0_19 0
U0_19 0
V0_19 0
Z0_19 0
T0_20 0
U0_20 0
V0_20 0
Z0_20 0
T0_21 0
U0_21 0
V0_21 0
Z0_21 0
T0_22 0
U0_22 0
V0_22 0
Z0_22 0
T0_23 0
U0_23 0
V0_23 0
Z0_23 0
T0_24 0
U0_24 0
V0_24 0
Z0_24 0
T0_25 0
U0_25 0
V0_25 0
Z0_25 0
T0_26 0
U0_26 0
V0_26 0
Z0_26 0
T0_27 0
U0_27 0
V0_27 0
Z0_27 0
T0_28 0
U0_28 0
V0_28 0
Z0_28 0
T0_29 0
U0_29 0
V0_29 0
Z0_29 0
T0_30 0
U0_30 0
V0_30 0
Z0_30 0
T0_31 0
U0_31 0
V0_31 0
Z0_31 0
T1_0 0
U1_0 0
V1_0 0
Z1_0 0
T1_1 0
U1_1 0
V1_1 0
Z1_1 0
T1_2 0
U1_2 0
V1_2 0
Z1_2 0
T1_3 0
U1_3 0
V1_3 0
Z1_3 0
T1_4 0
U1_4 0
V1_4 0
Z1_4 0
T1_5 0
U1_5 0
V1_5 0
Z1_5 0
T1_6 0
U1_6 0
V1_6 0
Z1_6 0
T1_7 0
U1_7 0
V1_7 0
Z1_7 0
T1_8 0
U1_8 0
V1_8 0
Z1_8 0
T1_9 0
U1_9 0
V1_9 0
Z1_9 0
T1_10 0
U1_10 0
V1_10 0
Z1_10 0
T1_11 0
U1_11 0
V1_11 0
Z1_11 0
T1_12 0
U1_12 0
V1_12 0
Z1_12 0
T1_13 0
U1_13 0
V1_13 0
Z1_13 0
T1_14 0
U1_14 0
V1_14 0
Z1_14 0
T1_15 0
U1_15 0
V1_15 0
Z1_15 0
T1_16 0
U1_16 0
V1_16 0
Z1_16 0
T1_17 0
U1_17 0
V1_17 1
Z1_17 1
T1_18 0
U1_18 0
V1_18 1
Z1_18 1
T1_19 0
U1_19 0
V1_19 1
Z1_19 1
T1_20 0
U1_20 0
V1_20 0
Z1_20 0
T1_21 0
U1_21 1
V1_21 1
Z1_21 1
T1_22 0
U1_22 1
V1_22 1
Z1_22 1
T1_23 0
U1_23 1
V1_23 1
Z1_23 1
T1_24 1
U1_24 1
V1_24 1
Z1_24 1
T1_25 1
U1_25 1
V1_25 1
Z1_25 1
T1_26 1
U1_26 1
V1_26 1
Z1_26 1
T1_27 0
U1_27 0
V1_27 0
Z1_27 0
T1_28 1
U1_28 1
V1_28 1
Z1_28 1
T1_29 1
U1_29 1
V1_29 1
Z1_29 0
T1_30 1
U1_30 1
V1_30 1
Z1_30 0
T1_31 0
U1_31 0
V1_31 0
Z1_31 1
T2_0 0
U2_0 0
V2_0 1
Z2_0 0
T2_1 0
U2_1 0
V2_1 1
Z2_1 1
T2_2 0
U2_2 0
V2_2 1
Z2_2 1
T2_3 0
U2_3 1
V2_3 0
Z2_3 1
T2_4 0
U2_4 1
V2_4 1
Z2_4 1
T2_5 0
U2_5 1
V2_5 1
Z2_5 1
T2_6 0
U2_6 1
V2_6 0
Z2_6 0
T2_7 1
U2_7 0
V2_7 0
Z2_7 0
T2_8 0
U2_8 0
V2_8 0
Z2_8 0
T2_9 0
U2_9 0
V2_9 0
Z2_9 0
T2_10 0
U2_10 1
V2_10 1
Z2_10 1
T2_11 0
U2_11 0
V2_11 0
Z2_11 0
T2_12 1
U2_12 1
V2_12 1
Z2_12 0
T2_13 0
U2_13 0
V2_13 0
Z2_13 1
T2_14 1
U2_14 1
V2_14 1
Z2_14 0
T2_15 1
U2_15 1
V2_15 0
Z2_15 1
T2_16 0
U2_16 0
V2_16 0
Z2_16 0
T2_17 0
U2_17 0
V2_17 0
Z2_17 1
T2_18 0
U2_18 0
V2_18 0
Z2_18 1
T2_19 0
U2_19 0
V2_19 0
Z2_19 1
T2_20 1
U2_20 1
V2_20 1
Z2_20 1
T2_21 1
U2_21 1
V2_21 0
Z2_21 1
T2_22 1
U2_22 1
V2_22 0
Z2_22 1
T2_23 0
U2_23 0
V2_23 1
Z2_23 0
T2_24 0
U2_24 0
V2_24 0
Z2_24 0
T2_25 0
U2_25 1
V2_25 0
Z2_25 0
T2_26 0
U2_26 1
V2_26 0
Z2_26 0
T2_27 0
U2_27 1
V2_27 0
Z2_27 0
T2_28 1
U2_28 1
V2_28 1
Z2_28 1
T2_29 1
U2_29 0
V2_29 0
Z2_29 0
T2_30 1
U2_30 0
V2_30 0
Z2_30 0
T2_31 0
U2_31 1
V2_31 1
Z2_31 1
T3_0 0
U3_0 0
V3_0 0
Z3_0 1
T3_1 0
U3_1 0
V3_1 0
Z3_1 0
T3_2 1
U3_2 1
V3_2 1
Z3_2 1
T3_3 1
U3_3 1
V3_3 0
Z3_3 1
T3_4 1
U3_4 1
V3_4 1
Z3_4 0
T3_5 0
U3_5 0
V3_5 0
Z3_5 1
T3_6 0
U3_6 0
V3_6 1
Z3_6 0
T3_7 0
U3_7 1
V3_7 0
Z3_7 0
T3_8 0
U3_8 0
V3_8 1
Z3_8 0
T3_9 0
U3_9 0
V3_9 1
Z3_9 1
T3_10 0
U3_10 1
V3_10 1
Z3_10 1
T3_11 1
U3_11 0
V3_11 1
Z3_11 1
T3_12 1
U3_12 0
V3_12 0
Z3_12 0
T3_13 0
U3_13 1
V3_13 1
Z3_13 1
T3_14 1
U3_14 1
V3_14 1
Z3_14 1
T3_15 0
U3_15 1
V3_15 1
Z3_15 1
T3_16 0
U3_16 1
V3_16 1
Z3_16 1
T3_17 0
U3_17 1
V3_17 1
Z3_17 0
T3_18 0
U3_18 1
V3_18 0
Z3_18 1
T3_19 1
U3_19 1
V3_19 0
Z3_19 1
T3_20 0
U3_20 0
V3_20 0
Z3_20 0
T3_21 0
U3_21 0
V3_21 1
Z3_21 0
T3_22 1
U3_22 0
V3_22 1
Z3_22 0
T3_23 1
U3_23 0
V3_23 1
Z3_23 0
T3_24 1
U3_24 1
V3_24 1
Z3_24 0
T3_25 0
U3_25 1
V3_25 0
Z3_25 1
T3_26 1
U3_26 0
V3_26 1
Z3_26 0
T3_27 0
U3_27 1
V3_27 0
Z3_27 0
T3_28 1
U3_28 1
V3_28 0
Z3_28 0
T3_29 0
U3_29 1
V3_29 0
Z3_29 0
T3_30 0
U3_30 1
V3_30 0
Z3_30 1
T3_31 0
U3_31 1
V3_31 1
Z3_31 0
T4_0 0
U4_0 1
V4_0 0
Z4_0 1
T4_1 1
U4_1 0
V4_1 0
Z4_1 0
T4_2 1
U4_2 0
V4_2 0
Z4_2 1
T4_3 1
U4_3 1
V4_3 0
Z4_3 1
T4_4 0
U4_4 1
V4_4 1
Z4_4 1
T4_5 0
U4_5 0
V4_5 1
Z4_5 1
T4_6 0
U4_6 0
V4_6 1
Z4_6 0
T4_7 1
U4_7 0
V4_7 0
Z4_7 0
T4_8 1
U4_8 1
V4_8 1
Z4_8 0
T4_9 1
U4_9 0
V4_9 1
Z4_9 0
T4_10 0
U4_10 1
V4_10 1
Z4_10 0
T4_11 1
U4_11 1
V4_11 0
Z4_11 1
T4_12 1
U4_12 1
V4_12 0
Z4_12 0
T4_13 1
U4_13 0
V4_13 1
Z4_13 0
T4_14 0
U4_14 0
V4_14 1
Z4_14 1
T4_15 1
U4_15 0
V4_15 0
Z4_15 0
T4_16 0
U4_16 0
V4_16 0
Z4_16 0
T4_17 1
U4_17 0
V4_17 1
Z4_17 0
T4_18 1
U4_18 0
V4_18 1
Z4_18 1
T4_19 1
U4_19 0
V4_19 1
Z4_19 1
T4_20 0
U4_20 0
V4_20 0
Z4_20 1
T4_21 0
U4_21 1
V4_21 0
Z4_21 1
T4_22 0
U4_22 1
V4_22 1
Z4_22 0
T4_23 0
U4_23 1
V4_23 1
Z4_23 0
T4_24 0
U4_24 0
V4_24 1
Z4_24 1
T4_25 0
U4_25 1
V4_25 0
Z4_25 1
T4_26 0
U4_26 0
V4_26 1
Z4_26 0
T4_27 0
U4_27 0
V4_27 1
Z4_27 0
T4_28 0
U4_28 1
V4_28 1
Z4_28 1
T4_29 1
U4_29 0
V4_29 1
Z4_29 0
T4_30 1
U4_30 0
V4_30 1
Z4_30 0
T4_31 1
U4_31 0
V4_31 1
Z4_31 0
T5_0 0
U5_0 0
V5_0 0
Z5_0 1
T5_1 1
U5_1 1
V5_1 1
Z5_1 1
T5_2 1
U5_2 1
V5_2 1
Z5_2 0
T5_3 0
U5_3 1
V5_3 0
Z5_3 0
T5_4 0
U5_4 0
V5_4 0
Z5_4 0
T5_5 0
U5_5 0
V5_5 1
Z5_5 1
T5_6 0
U5_6 0
V5_6 0
Z5_6 1
T5_7 1
U5_7 0
V5_7 0
Z5_7 0
T5_8 1
U5_8 1
V5_8 1
Z5_8 1
T5_9 0
U5_9 1
V5_9 0
Z5_9 0
T5_10 0
U5_10 0
V5_10 0
Z5_10 0
T5_11 1
U5_11 1
V5_11 1
Z5_11 1
T5_12 1
U5_12 1
V5_12 1
Z5_12 0
T5_13 1
U5_13 0
V5_13 0
Z5_13 0
T5_14 1
U5_14 1
V5_14 1
Z5_14 1
T5_15 0
U5_15 0
V5_15 1
Z5_15 1
T5_16 1
U5_16 1
V5_16 0
Z5_16 0
T5_17 0
U5_17 0
V5_17 0
Z5_17 0
T5_18 0
U5_18 0
V5_18 1
Z5_18 0
T5_19 1
U5_19 0
V5_19 0
Z5_19 0
T5_20 1
U5_20 0
V5_20 0
Z5_20 1
T5_21 1
U5_21 1
V5_21 1
Z5_21 0
T5_22 1
U5_22 0
V5_22 1
Z5_22 0
T5_23 1
U5_23 1
V5_23 1
Z5_23 1
T5_24 0
U5_24 0
V5_24 1
Z5_24 1
T5_25 1
U5_25 1
V5_25 0
Z5_25 0
T5_26 1
U5_26 0
V5_26 1
Z5_26 1
T5_27 1
U5_27 1
V5_27 1
Z5_27 0
T5_28 0
U5_28 1
V5_28 1
Z5_28 0
T5_29 0
U5_29 1
V5_29 1
Z5_29 1
T5_30 0
U5_30 1
V5_30 1
Z5_30 0
T5_31 1
U5_31 1
V5_31 0
Z5_31 0
T6_0 1
U6_0 0
V6_0 0
Z6_0 1
T6_1 0
U6_1 0
V6_1 0
Z6_1 1
T6_2 0
U6_2 1
V6_2 1
Z6_2 0
T6_3 1
U6_3 1
V6_3 0
Z6_3 1
T6_4 1
U6_4 1
V6_4 0
Z6_4 0
T6_5 1
U6_5 1
V6_5 0
Z6_5 1
T6_6 1
U6_6 1
V6_6 0
Z6_6 1
T6_7 1
U6_7 0
V6_7 0
Z6_7 1
T6_8 0
U6_8 1
V6_8 0
Z6_8 0
T6_9 0
U6_9 1
V6_9 0
Z6_9 1
T6_10 0
U6_10 1
V6_10 0
Z6_10 0
T6_11 1
U6_11 1
V6_11 1
Z6_11 0
T6_12 0
U6_12 1
V6_12 0
Z6_12 0
T6_13 0
U6_13 1
V6_13 1
Z6_13 1
T6_14 0
U6_14 1
V6_14 0
Z6_14 0
T6_15 1
U6_15 1
V6_15 1
Z6_15 1
T6_16 1
U6_16 1
V6_16 1
Z6_16 0
T6_17 1
U6_17 1
V6_17 0
Z6_17 1
T6_18 0
U6_18 0
V6_18 1
Z6_18 0
T6_19 1
U6_19 0
V6_19 1
Z6_19 0
T6_20 0
U6_20 0
V6_20 1
Z6_20 0
T6_21 0
U6_21 1
V6_21 0
Z6_21 0
T6_22 0
U6_22 1
V6_22 0
Z6_22 0
T6_23 0
U6_23 1
V6_23 0
Z6_23 1
T6_24 1
U6_24 0
V6_24 1
Z6_24 1
T6_25 1
U6_25 0
V6_25 0
Z6_25 0
T6_26 0
U6_26 1
V6_26 1
Z6_26 1
T6_27 1
U6_27 0
V6_27 1
Z6_27 0
T6_28 0
U6_28 1
V6_28 1
Z6_28 1
T6_29 0
U6_29 0
V6_29 0
Z6_29 1
T6_30 0
U6_30 0
V6_30 0
Z6_30 1
T6_31 0
U6_31 1
V6_31 0
Z6_31 1
T7_0 0
U7_0 1
V7_0 0
Z7_0 1
T7_1 0
U7_1 1
V7_1 1
Z7_1 0
T7_2 1
U7_2 1
V7_2 1
Z7_2 0
T7_3 0
U7_3 0
V7_3 1
Z7_3 0
T7_4 1
U7_4 0
V7_4 1
Z7_4 0
T7_5 0
U7_5 0
V7_5 1
Z7_5 0
T7_6 1
U7_6 1
V7_6 0
Z7_6 1
T7_7 0
U7_7 1
V7_7 0
Z7_7 0
T7_8 1
U7_8 0
V7_8 1
Z7_8 1
T7_9 1
U7_9 0
V7_9 1
Z7_9 0
T7_10 0
U7_10 1
V7_10 1
Z7_10 0
T7_11 1
U7_11 0
V7_11 0
Z7_11 0
T7_12 0
U7_12 1
V7_12 0
Z7_12 0
T7_13 0
U7_13 1
V7_13 0
Z7_13 1
T7_14 0
U7_14 0
V7_14 0
Z7_14 0
T7_15 0
U7_15 0
V7_15 0
Z7_15 0
T7_16 0
U7_16 0
V7_16 1
Z7_16 1
T7_17 1
U7_17 1
V7_17 1
Z7_17 1
T7_18 0
U7_18 1
V7_18 0
Z7_18 0
T7_19 0
U7_19 1
V7_19 0
Z7_19 0
T7_20 0
U7_20 1
V7_20 1
Z7_20 1
T7_21 0
U7_21 0
V7_21 0
Z7_21 0
T7_22 1
U7_22 0
V7_22 0
Z7_22 1
T7_23 1
U7_23 0
V7_23 0
Z7_23 0
T7_24 0
U7_24 0
V7_24 0
Z7_24 0
T7_25 0
U7_25 0
V7_25 0
Z7_25 0
T7_26 0
U7_26 0
V7_26 1
Z7_26 0
T7_27 1
U7_27 1
V7_27 1
Z7_27 0
T7_28 0
U7_28 0
V7_28 0
Z7_28 1
T7_29 1
U7_29 1
V7_29 1
Z7_29 1
T7_30 1
U7_30 0
V7_30 1
Z7_30 0
T7_31 0
U7_31 0
V7_31 1
Z7_31 0
T8_0 0
U8_0 0
V8_0 0
Z8_0 0
T8_1 1
U8_1 1
V8_1 1
Z8_1 0
T8_2 1
U8_2 1
V8_2 1
Z8_2 1
T8_3 1
U8_3 1
V8_3 1
Z8_3 1
T8_4 0
U8_4 0
V8_4 1
Z8_4 0
T8_5 0
U8_5 0
V8_5 0
Z8_5 1
T8_6 0
U8_6 0
V8_6 0
Z8_6 0
T8_7 0
U8_7 0
V8_7 1
Z8_7 0
T8_8 0
U8_8 1
V8_8 0
Z8_8 0
T8_9 0
U8_9 0
V8_9 0
Z8_9 0
T8_10 0
U8_10 0
V8_10 1
Z8_10 1
T8_11 0
U8_11 1
V8_11 1
Z8_11 1
T8_12 1
U8_12 0
V8_12 0
Z8_12 0
T8_13 1
U8_13 1
V8_13 1
Z8_13 1
T8_14 0
U8_14 1
V8_14 1
Z8_14 1
T8_15 1
U8_15 1
V8_15 1
Z8_15 1
T8_16 1
U8_16 0
V8_16 0
Z8_16 0
T8_17 1
U8_17 1
V8_17 1
Z8_17 1
T8_18 1
U8_18 0
V8_18 0
Z8_18 0
T8_19 1
U8_19 1
V8_19 1
Z8_19 1
T8_20 1
U8_20 1
V8_20 1
Z8_20 1
T8_21 0
U8_21 0
V8_21 0
Z8_21 1
T8_22 1
U8_22 1
V8_22 1
Z8_22 0
T8_23 1
U8_23 1
V8_23 1
Z8_23 0
T8_24 0
U8_24 0
V8_24 0
Z8_24 1
T8_25 1
U8_25 1
V8_25 0
Z8_25 0
T8_26 0
U8_26 0
V8_26 1
Z8_26 0
T8_27 0
U8_27 0
V8_27 1
Z8_27 1
T8_28 0
U8_28 0
V8_28 1
Z8_28 1
T8_29 0
U8_29 1
V8_29 1
Z8_29 1
T8_30 0
U8_30 1
V8_30 0
Z8_30 0
T8_31 0
U8_31 1
V8_31 1
Z8_31 1
X9_0 0
X9_1 0
X9_2 1
X9_3 0
X9_4 0
X9_5 0
X9_6 1
X9_7 1
X9_8 0
X9_9 1
X9_10 0
X9_11 0
X9_12 0
X9_13 1
X9_14 0
X9_15 0
X9_16 0
X9_17 1
X9_18 0
X9_19 1
X9_20 1
X9_21 1
X9_22 1
X9_23 1
X9_24 1
X9_25 1
X9_26 1
X9_27 1
X9_28 0
X9_29 0
X9_30 1
X9_31 1
